(set-logic QF_LRA)
(declare-fun T1 () Real )
(declare-fun T2 () Real )
(declare-fun T3 () Real )
(declare-fun T4 () Real )
(declare-fun T5 () Real )
(declare-fun T6 () Real )
(declare-fun T7 () Real )
(declare-fun T8 () Real )
(declare-fun Z () Real )
(assert ( and 
(or ( <= ( + T1 23 ) T2 ) ( <= ( + T2 100 ) T1 ) )
(or ( <= ( + T1 119 )  ( + T2 100 ) ) ( <= ( + T2 149 )( + T1 23 ) ) )
(or ( <= ( + T1 172 )  ( + T2 149 ) ) ( <= ( + T2 198 )( + T1 119 ) ) )
(or ( <= ( + T1 184 )  ( + T2 198 ) ) ( <= ( + T2 246 )( + T1 172 ) ) )
(or ( <= ( + T1 197 )  ( + T2 246 ) ) ( <= ( + T2 302 )( + T1 184 ) ) )
(or ( <= ( + T1 280 )  ( + T2 302 ) ) ( <= ( + T2 392 )( + T1 197 ) ) )
(or ( <= ( + T1 23 ) T3 ) ( <= ( + T3 60 ) T1 ) )
(or ( <= ( + T1 119 )  ( + T3 60 ) ) ( <= ( + T3 150 )( + T1 23 ) ) )
(or ( <= ( + T1 172 )  ( + T3 150 ) ) ( <= ( + T3 242 )( + T1 119 ) ) )
(or ( <= ( + T1 184 )  ( + T3 242 ) ) ( <= ( + T3 250 )( + T1 172 ) ) )
(or ( <= ( + T1 197 )  ( + T3 250 ) ) ( <= ( + T3 297 )( + T1 184 ) ) )
(or ( <= ( + T1 280 )  ( + T3 297 ) ) ( <= ( + T3 319 )( + T1 197 ) ) )
(or ( <= ( + T1 23 ) T4 ) ( <= ( + T4 18 ) T1 ) )
(or ( <= ( + T1 119 )  ( + T4 18 ) ) ( <= ( + T4 117 )( + T1 23 ) ) )
(or ( <= ( + T1 172 )  ( + T4 117 ) ) ( <= ( + T4 143 )( + T1 119 ) ) )
(or ( <= ( + T1 184 )  ( + T4 143 ) ) ( <= ( + T4 168 )( + T1 172 ) ) )
(or ( <= ( + T1 197 )  ( + T4 168 ) ) ( <= ( + T4 230 )( + T1 184 ) ) )
(or ( <= ( + T1 280 )  ( + T4 230 ) ) ( <= ( + T4 261 )( + T1 197 ) ) )
(or ( <= ( + T1 23 ) T5 ) ( <= ( + T5 19 ) T1 ) )
(or ( <= ( + T1 119 )  ( + T5 19 ) ) ( <= ( + T5 109 )( + T1 23 ) ) )
(or ( <= ( + T1 172 )  ( + T5 109 ) ) ( <= ( + T5 122 )( + T1 119 ) ) )
(or ( <= ( + T1 184 )  ( + T5 122 ) ) ( <= ( + T5 219 )( + T1 172 ) ) )
(or ( <= ( + T1 197 )  ( + T5 219 ) ) ( <= ( + T5 278 )( + T1 184 ) ) )
(or ( <= ( + T1 280 )  ( + T5 278 ) ) ( <= ( + T5 306 )( + T1 197 ) ) )
(or ( <= ( + T1 23 ) T6 ) ( <= ( + T6 89 ) T1 ) )
(or ( <= ( + T1 119 )  ( + T6 89 ) ) ( <= ( + T6 170 )( + T1 23 ) ) )
(or ( <= ( + T1 172 )  ( + T6 170 ) ) ( <= ( + T6 245 )( + T1 119 ) ) )
(or ( <= ( + T1 184 )  ( + T6 245 ) ) ( <= ( + T6 286 )( + T1 172 ) ) )
(or ( <= ( + T1 197 )  ( + T6 286 ) ) ( <= ( + T6 330 )( + T1 184 ) ) )
(or ( <= ( + T1 280 )  ( + T6 330 ) ) ( <= ( + T6 369 )( + T1 197 ) ) )
(or ( <= ( + T1 23 ) T7 ) ( <= ( + T7 75 ) T1 ) )
(or ( <= ( + T1 119 )  ( + T7 75 ) ) ( <= ( + T7 119 )( + T1 23 ) ) )
(or ( <= ( + T1 172 )  ( + T7 119 ) ) ( <= ( + T7 158 )( + T1 119 ) ) )
(or ( <= ( + T1 184 )  ( + T7 158 ) ) ( <= ( + T7 233 )( + T1 172 ) ) )
(or ( <= ( + T1 197 )  ( + T7 233 ) ) ( <= ( + T7 276 )( + T1 184 ) ) )
(or ( <= ( + T1 280 )  ( + T7 276 ) ) ( <= ( + T7 371 )( + T1 197 ) ) )
(or ( <= ( + T1 23 ) T8 ) ( <= ( + T8 64 ) T1 ) )
(or ( <= ( + T1 119 )  ( + T8 64 ) ) ( <= ( + T8 118 )( + T1 23 ) ) )
(or ( <= ( + T1 172 )  ( + T8 118 ) ) ( <= ( + T8 202 )( + T1 119 ) ) )
(or ( <= ( + T1 184 )  ( + T8 202 ) ) ( <= ( + T8 210 )( + T1 172 ) ) )
(or ( <= ( + T1 197 )  ( + T8 210 ) ) ( <= ( + T8 271 )( + T1 184 ) ) )
(or ( <= ( + T1 280 )  ( + T8 271 ) ) ( <= ( + T8 354 )( + T1 197 ) ) )
(or ( <= ( + T2 100 ) T3 ) ( <= ( + T3 60 ) T2 ) )
(or ( <= ( + T2 149 )  ( + T3 60 ) ) ( <= ( + T3 150 )( + T2 100 ) ) )
(or ( <= ( + T2 198 )  ( + T3 150 ) ) ( <= ( + T3 242 )( + T2 149 ) ) )
(or ( <= ( + T2 246 )  ( + T3 242 ) ) ( <= ( + T3 250 )( + T2 198 ) ) )
(or ( <= ( + T2 302 )  ( + T3 250 ) ) ( <= ( + T3 297 )( + T2 246 ) ) )
(or ( <= ( + T2 392 )  ( + T3 297 ) ) ( <= ( + T3 319 )( + T2 302 ) ) )
(or ( <= ( + T2 100 ) T4 ) ( <= ( + T4 18 ) T2 ) )
(or ( <= ( + T2 149 )  ( + T4 18 ) ) ( <= ( + T4 117 )( + T2 100 ) ) )
(or ( <= ( + T2 198 )  ( + T4 117 ) ) ( <= ( + T4 143 )( + T2 149 ) ) )
(or ( <= ( + T2 246 )  ( + T4 143 ) ) ( <= ( + T4 168 )( + T2 198 ) ) )
(or ( <= ( + T2 302 )  ( + T4 168 ) ) ( <= ( + T4 230 )( + T2 246 ) ) )
(or ( <= ( + T2 392 )  ( + T4 230 ) ) ( <= ( + T4 261 )( + T2 302 ) ) )
(or ( <= ( + T2 100 ) T5 ) ( <= ( + T5 19 ) T2 ) )
(or ( <= ( + T2 149 )  ( + T5 19 ) ) ( <= ( + T5 109 )( + T2 100 ) ) )
(or ( <= ( + T2 198 )  ( + T5 109 ) ) ( <= ( + T5 122 )( + T2 149 ) ) )
(or ( <= ( + T2 246 )  ( + T5 122 ) ) ( <= ( + T5 219 )( + T2 198 ) ) )
(or ( <= ( + T2 302 )  ( + T5 219 ) ) ( <= ( + T5 278 )( + T2 246 ) ) )
(or ( <= ( + T2 392 )  ( + T5 278 ) ) ( <= ( + T5 306 )( + T2 302 ) ) )
(or ( <= ( + T2 100 ) T6 ) ( <= ( + T6 89 ) T2 ) )
(or ( <= ( + T2 149 )  ( + T6 89 ) ) ( <= ( + T6 170 )( + T2 100 ) ) )
(or ( <= ( + T2 198 )  ( + T6 170 ) ) ( <= ( + T6 245 )( + T2 149 ) ) )
(or ( <= ( + T2 246 )  ( + T6 245 ) ) ( <= ( + T6 286 )( + T2 198 ) ) )
(or ( <= ( + T2 302 )  ( + T6 286 ) ) ( <= ( + T6 330 )( + T2 246 ) ) )
(or ( <= ( + T2 392 )  ( + T6 330 ) ) ( <= ( + T6 369 )( + T2 302 ) ) )
(or ( <= ( + T2 100 ) T7 ) ( <= ( + T7 75 ) T2 ) )
(or ( <= ( + T2 149 )  ( + T7 75 ) ) ( <= ( + T7 119 )( + T2 100 ) ) )
(or ( <= ( + T2 198 )  ( + T7 119 ) ) ( <= ( + T7 158 )( + T2 149 ) ) )
(or ( <= ( + T2 246 )  ( + T7 158 ) ) ( <= ( + T7 233 )( + T2 198 ) ) )
(or ( <= ( + T2 302 )  ( + T7 233 ) ) ( <= ( + T7 276 )( + T2 246 ) ) )
(or ( <= ( + T2 392 )  ( + T7 276 ) ) ( <= ( + T7 371 )( + T2 302 ) ) )
(or ( <= ( + T2 100 ) T8 ) ( <= ( + T8 64 ) T2 ) )
(or ( <= ( + T2 149 )  ( + T8 64 ) ) ( <= ( + T8 118 )( + T2 100 ) ) )
(or ( <= ( + T2 198 )  ( + T8 118 ) ) ( <= ( + T8 202 )( + T2 149 ) ) )
(or ( <= ( + T2 246 )  ( + T8 202 ) ) ( <= ( + T8 210 )( + T2 198 ) ) )
(or ( <= ( + T2 302 )  ( + T8 210 ) ) ( <= ( + T8 271 )( + T2 246 ) ) )
(or ( <= ( + T2 392 )  ( + T8 271 ) ) ( <= ( + T8 354 )( + T2 302 ) ) )
(or ( <= ( + T3 60 ) T4 ) ( <= ( + T4 18 ) T3 ) )
(or ( <= ( + T3 150 )  ( + T4 18 ) ) ( <= ( + T4 117 )( + T3 60 ) ) )
(or ( <= ( + T3 242 )  ( + T4 117 ) ) ( <= ( + T4 143 )( + T3 150 ) ) )
(or ( <= ( + T3 250 )  ( + T4 143 ) ) ( <= ( + T4 168 )( + T3 242 ) ) )
(or ( <= ( + T3 297 )  ( + T4 168 ) ) ( <= ( + T4 230 )( + T3 250 ) ) )
(or ( <= ( + T3 319 )  ( + T4 230 ) ) ( <= ( + T4 261 )( + T3 297 ) ) )
(or ( <= ( + T3 60 ) T5 ) ( <= ( + T5 19 ) T3 ) )
(or ( <= ( + T3 150 )  ( + T5 19 ) ) ( <= ( + T5 109 )( + T3 60 ) ) )
(or ( <= ( + T3 242 )  ( + T5 109 ) ) ( <= ( + T5 122 )( + T3 150 ) ) )
(or ( <= ( + T3 250 )  ( + T5 122 ) ) ( <= ( + T5 219 )( + T3 242 ) ) )
(or ( <= ( + T3 297 )  ( + T5 219 ) ) ( <= ( + T5 278 )( + T3 250 ) ) )
(or ( <= ( + T3 319 )  ( + T5 278 ) ) ( <= ( + T5 306 )( + T3 297 ) ) )
(or ( <= ( + T3 60 ) T6 ) ( <= ( + T6 89 ) T3 ) )
(or ( <= ( + T3 150 )  ( + T6 89 ) ) ( <= ( + T6 170 )( + T3 60 ) ) )
(or ( <= ( + T3 242 )  ( + T6 170 ) ) ( <= ( + T6 245 )( + T3 150 ) ) )
(or ( <= ( + T3 250 )  ( + T6 245 ) ) ( <= ( + T6 286 )( + T3 242 ) ) )
(or ( <= ( + T3 297 )  ( + T6 286 ) ) ( <= ( + T6 330 )( + T3 250 ) ) )
(or ( <= ( + T3 319 )  ( + T6 330 ) ) ( <= ( + T6 369 )( + T3 297 ) ) )
(or ( <= ( + T3 60 ) T7 ) ( <= ( + T7 75 ) T3 ) )
(or ( <= ( + T3 150 )  ( + T7 75 ) ) ( <= ( + T7 119 )( + T3 60 ) ) )
(or ( <= ( + T3 242 )  ( + T7 119 ) ) ( <= ( + T7 158 )( + T3 150 ) ) )
(or ( <= ( + T3 250 )  ( + T7 158 ) ) ( <= ( + T7 233 )( + T3 242 ) ) )
(or ( <= ( + T3 297 )  ( + T7 233 ) ) ( <= ( + T7 276 )( + T3 250 ) ) )
(or ( <= ( + T3 319 )  ( + T7 276 ) ) ( <= ( + T7 371 )( + T3 297 ) ) )
(or ( <= ( + T3 60 ) T8 ) ( <= ( + T8 64 ) T3 ) )
(or ( <= ( + T3 150 )  ( + T8 64 ) ) ( <= ( + T8 118 )( + T3 60 ) ) )
(or ( <= ( + T3 242 )  ( + T8 118 ) ) ( <= ( + T8 202 )( + T3 150 ) ) )
(or ( <= ( + T3 250 )  ( + T8 202 ) ) ( <= ( + T8 210 )( + T3 242 ) ) )
(or ( <= ( + T3 297 )  ( + T8 210 ) ) ( <= ( + T8 271 )( + T3 250 ) ) )
(or ( <= ( + T3 319 )  ( + T8 271 ) ) ( <= ( + T8 354 )( + T3 297 ) ) )
(or ( <= ( + T4 18 ) T5 ) ( <= ( + T5 19 ) T4 ) )
(or ( <= ( + T4 117 )  ( + T5 19 ) ) ( <= ( + T5 109 )( + T4 18 ) ) )
(or ( <= ( + T4 143 )  ( + T5 109 ) ) ( <= ( + T5 122 )( + T4 117 ) ) )
(or ( <= ( + T4 168 )  ( + T5 122 ) ) ( <= ( + T5 219 )( + T4 143 ) ) )
(or ( <= ( + T4 230 )  ( + T5 219 ) ) ( <= ( + T5 278 )( + T4 168 ) ) )
(or ( <= ( + T4 261 )  ( + T5 278 ) ) ( <= ( + T5 306 )( + T4 230 ) ) )
(or ( <= ( + T4 18 ) T6 ) ( <= ( + T6 89 ) T4 ) )
(or ( <= ( + T4 117 )  ( + T6 89 ) ) ( <= ( + T6 170 )( + T4 18 ) ) )
(or ( <= ( + T4 143 )  ( + T6 170 ) ) ( <= ( + T6 245 )( + T4 117 ) ) )
(or ( <= ( + T4 168 )  ( + T6 245 ) ) ( <= ( + T6 286 )( + T4 143 ) ) )
(or ( <= ( + T4 230 )  ( + T6 286 ) ) ( <= ( + T6 330 )( + T4 168 ) ) )
(or ( <= ( + T4 261 )  ( + T6 330 ) ) ( <= ( + T6 369 )( + T4 230 ) ) )
(or ( <= ( + T4 18 ) T7 ) ( <= ( + T7 75 ) T4 ) )
(or ( <= ( + T4 117 )  ( + T7 75 ) ) ( <= ( + T7 119 )( + T4 18 ) ) )
(or ( <= ( + T4 143 )  ( + T7 119 ) ) ( <= ( + T7 158 )( + T4 117 ) ) )
(or ( <= ( + T4 168 )  ( + T7 158 ) ) ( <= ( + T7 233 )( + T4 143 ) ) )
(or ( <= ( + T4 230 )  ( + T7 233 ) ) ( <= ( + T7 276 )( + T4 168 ) ) )
(or ( <= ( + T4 261 )  ( + T7 276 ) ) ( <= ( + T7 371 )( + T4 230 ) ) )
(or ( <= ( + T4 18 ) T8 ) ( <= ( + T8 64 ) T4 ) )
(or ( <= ( + T4 117 )  ( + T8 64 ) ) ( <= ( + T8 118 )( + T4 18 ) ) )
(or ( <= ( + T4 143 )  ( + T8 118 ) ) ( <= ( + T8 202 )( + T4 117 ) ) )
(or ( <= ( + T4 168 )  ( + T8 202 ) ) ( <= ( + T8 210 )( + T4 143 ) ) )
(or ( <= ( + T4 230 )  ( + T8 210 ) ) ( <= ( + T8 271 )( + T4 168 ) ) )
(or ( <= ( + T4 261 )  ( + T8 271 ) ) ( <= ( + T8 354 )( + T4 230 ) ) )
(or ( <= ( + T5 19 ) T6 ) ( <= ( + T6 89 ) T5 ) )
(or ( <= ( + T5 109 )  ( + T6 89 ) ) ( <= ( + T6 170 )( + T5 19 ) ) )
(or ( <= ( + T5 122 )  ( + T6 170 ) ) ( <= ( + T6 245 )( + T5 109 ) ) )
(or ( <= ( + T5 219 )  ( + T6 245 ) ) ( <= ( + T6 286 )( + T5 122 ) ) )
(or ( <= ( + T5 278 )  ( + T6 286 ) ) ( <= ( + T6 330 )( + T5 219 ) ) )
(or ( <= ( + T5 306 )  ( + T6 330 ) ) ( <= ( + T6 369 )( + T5 278 ) ) )
(or ( <= ( + T5 19 ) T7 ) ( <= ( + T7 75 ) T5 ) )
(or ( <= ( + T5 109 )  ( + T7 75 ) ) ( <= ( + T7 119 )( + T5 19 ) ) )
(or ( <= ( + T5 122 )  ( + T7 119 ) ) ( <= ( + T7 158 )( + T5 109 ) ) )
(or ( <= ( + T5 219 )  ( + T7 158 ) ) ( <= ( + T7 233 )( + T5 122 ) ) )
(or ( <= ( + T5 278 )  ( + T7 233 ) ) ( <= ( + T7 276 )( + T5 219 ) ) )
(or ( <= ( + T5 306 )  ( + T7 276 ) ) ( <= ( + T7 371 )( + T5 278 ) ) )
(or ( <= ( + T5 19 ) T8 ) ( <= ( + T8 64 ) T5 ) )
(or ( <= ( + T5 109 )  ( + T8 64 ) ) ( <= ( + T8 118 )( + T5 19 ) ) )
(or ( <= ( + T5 122 )  ( + T8 118 ) ) ( <= ( + T8 202 )( + T5 109 ) ) )
(or ( <= ( + T5 219 )  ( + T8 202 ) ) ( <= ( + T8 210 )( + T5 122 ) ) )
(or ( <= ( + T5 278 )  ( + T8 210 ) ) ( <= ( + T8 271 )( + T5 219 ) ) )
(or ( <= ( + T5 306 )  ( + T8 271 ) ) ( <= ( + T8 354 )( + T5 278 ) ) )
(or ( <= ( + T6 89 ) T7 ) ( <= ( + T7 75 ) T6 ) )
(or ( <= ( + T6 170 )  ( + T7 75 ) ) ( <= ( + T7 119 )( + T6 89 ) ) )
(or ( <= ( + T6 245 )  ( + T7 119 ) ) ( <= ( + T7 158 )( + T6 170 ) ) )
(or ( <= ( + T6 286 )  ( + T7 158 ) ) ( <= ( + T7 233 )( + T6 245 ) ) )
(or ( <= ( + T6 330 )  ( + T7 233 ) ) ( <= ( + T7 276 )( + T6 286 ) ) )
(or ( <= ( + T6 369 )  ( + T7 276 ) ) ( <= ( + T7 371 )( + T6 330 ) ) )
(or ( <= ( + T6 89 ) T8 ) ( <= ( + T8 64 ) T6 ) )
(or ( <= ( + T6 170 )  ( + T8 64 ) ) ( <= ( + T8 118 )( + T6 89 ) ) )
(or ( <= ( + T6 245 )  ( + T8 118 ) ) ( <= ( + T8 202 )( + T6 170 ) ) )
(or ( <= ( + T6 286 )  ( + T8 202 ) ) ( <= ( + T8 210 )( + T6 245 ) ) )
(or ( <= ( + T6 330 )  ( + T8 210 ) ) ( <= ( + T8 271 )( + T6 286 ) ) )
(or ( <= ( + T6 369 )  ( + T8 271 ) ) ( <= ( + T8 354 )( + T6 330 ) ) )
(or ( <= ( + T7 75 ) T8 ) ( <= ( + T8 64 ) T7 ) )
(or ( <= ( + T7 119 )  ( + T8 64 ) ) ( <= ( + T8 118 )( + T7 75 ) ) )
(or ( <= ( + T7 158 )  ( + T8 118 ) ) ( <= ( + T8 202 )( + T7 119 ) ) )
(or ( <= ( + T7 233 )  ( + T8 202 ) ) ( <= ( + T8 210 )( + T7 158 ) ) )
(or ( <= ( + T7 276 )  ( + T8 210 ) ) ( <= ( + T8 271 )( + T7 233 ) ) )
(or ( <= ( + T7 371 )  ( + T8 271 ) ) ( <= ( + T8 354 )( + T7 276 ) ) )
( <= ( + T1 280 ) Z)
( <= ( + T2 392 ) Z)
( <= ( + T3 319 ) Z)
( <= ( + T4 261 ) Z)
( <= ( + T5 306 ) Z)
( <= ( + T6 369 ) Z)
( <= ( + T7 371 ) Z)
( <= ( + T8 354 ) Z)
( >= T1 0 )
( >= T2 0 )
( >= T3 0 )
( >= T4 0 )
( >= T5 0 )
( >= T6 0 )
( >= T7 0 )
( >= T8 0 )
) )
(minimize Z)
(check-sat)